303.3
367.9
370.4
367.1
408.1
402.5
468.4
401.0
396.6
457.7
468.5
479.9
452.6
481.8
484.8
513.9
505.5
538.5
576.5
549.3
556.1
532.9
560.4
549.9
606.1
578.8
681.3
699.8
698.8
667.4
600.3
620.6
683.4
643.6
691.9
774.8
812.9
750.2
698.5
695.7
773.31
721.2
752.1
794.9
906.7
899.9
843.7
784.6
860.5
762.9
772.5
810.2
887.2
1044.0
1021.2
934.6
984.8
817.2
784.2
852.8
904.0
998.1
1140.0
1104.3
